%%% static parameters %%%
timespan = [1];
Fact = [3];
Distr1 = [10];
Distr2 = [20];
Clients_N = [40];
Demand_W = [15];
Lt0 = [4];
Lt1 = [4];
SS_ = [0.85];
DS_D = [7];
K = [200];
MA = [500];
%%% dynamic parameters %%%
lost_ratio_sales_ret_th = 0.5499558207205292;
lost_ratio_sales_ret_w = 48;
lost_ratio_sales_dis_th = 0.6623937790439981;
lost_ratio_sales_dis_w = 6;
lost_ratio_sales_fac_th = 0.8750581465146129;
lost_ratio_sales_fac_w = 12;
stock_customer_MA_mean_relative_th = 0.9847847532466688;
stock_customer_MA_mean_relative_w = 56;
stock_distributor_MA_mean_relative_th = 0.15067189710801288;
stock_distributor_MA_mean_relative_w = 23;
stock_retailer_MA_mean_relative_th = 0.5085819303680803;
stock_retailer_MA_mean_relative_w = 76;
stock_factory_MA_mean_relative_th = 0.13805392279078443;
stock_factory_MA_mean_relative_w = 46;
